2
120 3
68
30 1 4
31 1 3
32 1 2
33 1 2
34 1 4
35 1 3
36 1 3
37 1 4
38 1 2
39 1 5
40 1 3
41 1 1
42 1 3
43 1 1
44 1 3
45 1 4
46 1 5
48 1 3
49 1 3
50 1 4
51 1 2
52 1 3
53 1 3
54 1 3
55 1 3
56 1 5
57 1 2
58 1 2
59 1 3
60 1 6
61 1 1
62 1 3
63 1 4
65 1 2
66 1 6
67 1 4
68 1 3
69 1 2
70 1 3
71 1 2
72 1 5
73 1 4
74 1 5
75 1 3
77 1 3
78 1 2
79 1 1
80 1 1
81 1 5
82 1 1
83 1 1
84 1 1
85 1 3
86 1 1
87 1 2
88 1 3
89 1 5
90 1 2
91 1 1
92 1 4
93 1 1
94 1 2
95 1 3
96 1 4
97 1 3
98 1 6
99 1 2
100 1 2
